10
2 7
7 2
4 7
7 4
2 4
4 2
1 7
7 1
4 1 
1 4
4 10
10 4
2 5
5 2
2 6
6 2
2 10
10 2
5 6
6 5
10 6
6 10
10 9
9 10
10 1
1 10
1 9
9 1
1 8
8 1
1 3
3 1
3 8
8 3
8 9
9 8
3 9
9 3


Adjacent Matrix:
  1  0  1  1  0  0  1  1  1  1
  0  1  0  1  1  1  1  0  0  1
  1  0  2  0  0  0  0  1  1  0
  1  1  0  2  0  0  1  0  0  1
  0  1  0  0  2  1  0  0  0  0
  0  1  0  0  1  3  0  0  0  1
  1  1  0  1  0  0  3  0  0  0
  1  0  1  0  0  0  0  3  1  0
  1  0  1  0  0  0  0  1  4  1
  1  1  0  1  0  1  0  0  1  5

Number of color used: 5
20
0 2
0 18
0 1
0 10
0 4
0 5
0 17
1 10
1 0
1 17
1 16
1 4
10 0
10 1
10 16
10 17
17 0
17 10
17 1
17 16
16 10
16 1
16 17
16 4
18 7
18 5
18 0
7 18
7 5
7 13
5 7
5 18
5 0
5 2
5 13
5 14
5 6
2 5
2 0
2 4
2 6
4 0
4 1
4 16
4 15
4 11
4 8
4 9
4 3
4 2
15 4
11 4
11 8
8 4
8 11
6 2
6 5
6 14
6 19
6 3
6 12
3 6
3 12
3 9
3 4
9 4
9 3
9 12
12 6
12 3
12 9
13 7
13 5
13 14
14 5
14 13
14 6
14 19
19 6
19 14





Adjacent Matrix:
  1  0  0  1  0  0  0  0  0  1  0  0  0  0  0  1  1  0  0  0
  0  1  0  1  1  1  0  0  0  0  0  0  0  0  0  0  0  0  0  0
  0  0  1  1  0  1  0  0  1  0  0  1  0  0  0  0  0  0  0  0
  1  1  1  2  0  0  0  1  1  0  1  0  0  0  1  1  0  0  0  0
  0  1  0  0  2  1  1  0  0  0  0  0  1  1  0  0  0  1  0  0
  0  1  1  0  1  3  0  0  0  0  0  1  0  1  0  0  0  0  1  0
  0  0  0  0  1  0  1  0  0  0  0  0  1  0  0  0  0  1  0  0
  0  0  0  1  0  0  0  1  0  0  1  0  0  0  0  0  0  0  0  0
  0  0  1  1  0  0  0  0  3  0  0  1  0  0  0  0  0  0  0  0
  1  0  0  0  0  0  0  0  0  2  0  0  0  0  0  1  1  0  0  0
  0  0  0  1  0  0  0  1  0  0  3  0  0  0  0  0  0  0  0  0
  0  0  1  0  0  1  0  0  1  0  0  2  0  0  0  0  0  0  0  0
  0  0  0  0  1  0  1  0  0  0  0  0  3  1  0  0  0  0  0  0
  0  0  0  0  1  1  0  0  0  0  0  0  1  1  0  0  0  0  1  0
  0  0  0  1  0  0  0  0  0  0  0  0  0  0  1  0  0  0  0  0
  1  0  0  1  0  0  0  0  0  1  0  0  0  0  0  3  1  0  0  0
  1  0  0  0  0  0  0  0  0  1  0  0  0  0  0  1  4  0  0  0
  0  0  0  0  1  0  1  0  0  0  0  0  0  0  0  0  0  3  0  0
  0  0  0  0  0  1  0  0  0  0  0  0  0  1  0  0  0  0  2  0
  0  0  0  0  0  0  0  0  0  0  0  0  0  0  0  0  0  0  0  1

Number of color used: 4
10
1 8
8 1
1 9
9 1
1 10 
10 1
1 4 
4 1
9 8
8 9
3 8
8 3
9 3
3 9
9 10
10 9
10 4
4 10
4 7
7 4
4 2
2 4
10 2
2 10
10 6
6 10
2 6
6 2
5 6
6 5



Adjacent Matrix:
  1  0  0  1  0  0  0  1  1  1
  0  1  0  1  0  1  0  0  0  1
  0  0  1  0  0  0  0  1  1  0
  1  1  0  2  0  0  1  0  0  1
  0  0  0  0  1  1  0  0  0  0
  0  1  0  0  1  2  0  0  0  1
  0  0  0  1  0  0  1  0  0  0
  1  0  1  0  0  0  0  2  1  0
  1  0  1  0  0  0  0  1  3  1
  1  1  0  1  0  1  0  0  1  4

Number of color used: 4
